p cnf 216 1132
1 2 0
3 4 0
5 6 0
7 8 0
9 10 0
11 12 0
13 14 0
15 0
16 17 0
18 19 0
20 21 0
22 23 0
24 25 0
26 27 0
28 29 0
31 32 0
33 34 0
35 36 0
37 38 0
39 40 0
41 42 0
43 0
44 45 0
46 47 0
48 49 0
51 52 0
53 54 0
55 56 0
57 58 0
59 60 0
61 62 0
63 64 0
65 66 0
67 68 0
69 70 0
71 72 0
73 74 0
76 77 0
78 79 0
80 81 0
82 83 0
84 85 0
86 87 0
88 89 0
90 91 0
92 93 0
94 95 0
96 97 0
98 99 0
100 101 0
102 103 0
104 105 0
106 107 0
108 109 0
110 111 0
112 113 0
114 115 0
116 117 0
118 119 0
120 121 0
122 123 0
124 125 0
126 127 0
128 129 0
130 131 0
132 133 0
134 135 0
136 137 0
138 139 0
140 141 0
142 143 0
144 145 0
146 147 0
148 149 0
150 151 0
152 153 0
154 155 0
156 157 0
158 159 0
160 161 0
162 163 0
164 165 0
166 167 0
168 169 0
170 171 0
172 173 0
174 175 0
176 177 0
178 179 0
180 181 0
182 183 0
184 185 0
186 187 0
-61 -63 -65 -67 -69 -72 -73 -75 -76 -78 -80 -83 -84 -87 -89 -90 -93 -94 -96 -98 -100 -103 -104 -107 -109 -111 -113 -114 -117 -118 -121 -122 0
-124 -126 -128 -130 -132 -135 -136 -138 -140 -142 -144 -147 -148 -151 -153 -154 -157 -158 -160 -162 -164 -167 -168 -171 -173 -175 -177 -178 -181 -182 -185 -186 0
-62 -63 -65 -68 -70 -71 -74 -75 -76 -79 -81 -83 -84 -86 -88 -91 -92 -95 -96 -99 -100 -103 -104 -106 -109 -110 -113 -114 -117 -119 -121 -122 0
-125 -126 -128 -131 -133 -134 -137 -138 -140 -143 -145 -147 -148 -150 -152 -155 -156 -159 -160 -163 -164 -167 -168 -170 -173 -174 -177 -178 -181 -183 -185 -186 0
-62 -64 -66 -68 -69 -71 -73 -75 -76 -79 -81 -82 -84 -86 -89 -90 -93 -94 -96 -98 -100 -102 -104 -107 -109 -110 -112 -114 -116 -118 -120 -123 0
-125 -127 -129 -131 -132 -134 -136 -138 -140 -143 -145 -146 -148 -150 -153 -154 -157 -158 -160 -162 -164 -166 -168 -171 -173 -174 -176 -178 -180 -182 -184 -187 0
-62 -63 -66 -68 -70 -72 -74 -75 -77 -78 -80 -83 -85 -87 -88 -91 -93 -94 -97 -99 -101 -102 -104 -107 -109 -111 -113 -114 -117 -118 -121 -122 0
-125 -126 -129 -131 -133 -135 -137 -138 -141 -142 -144 -147 -149 -151 -152 -155 -157 -158 -161 -163 -165 -166 -168 -171 -173 -175 -177 -178 -181 -182 -185 -186 0
-62 -63 -66 -68 -69 -71 -74 -76 -79 -80 -83 -85 -86 -89 -91 -92 -94 -96 -99 -101 -103 -104 -106 -108 -110 -112 -115 -117 -118 -121 -123 0
-125 -126 -129 -131 -132 -134 -137 -139 -140 -143 -144 -147 -149 -150 -153 -155 -156 -158 -160 -163 -165 -167 -168 -170 -172 -174 -176 -179 -181 -182 -185 -187 0
-62 -63 -66 -68 -69 -72 -73 -75 -76 -78 -81 -83 -85 -86 -88 -90 -93 -94 -96 -98 -100 -102 -104 -107 -109 -111 -113 -115 -117 -119 -121 -122 0
-125 -126 -129 -131 -132 -135 -136 -138 -140 -142 -145 -147 -149 -150 -152 -154 -157 -158 -160 -162 -164 -166 -168 -171 -173 -175 -177 -179 -181 -183 -185 -186 0
-62 -64 -66 -67 -70 -71 -73 -77 -79 -81 -83 -85 -86 -89 -90 -92 -95 -97 -98 -100 -103 -104 -106 -109 -111 -113 -114 -117 -119 -121 -123 0
-125 -127 -129 -130 -133 -134 -136 -139 -141 -143 -145 -147 -149 -150 -153 -154 -156 -159 -161 -162 -164 -167 -168 -170 -173 -175 -177 -178 -181 -183 -185 -187 0
-62 -64 -66 -67 -70 -72 -74 -75 -76 -79 -81 -82 -85 -86 -89 -91 -93 -94 -97 -99 -100 -102 -104 -106 -109 -111 -112 -115 -117 -118 -121 -122 0
-125 -127 -129 -130 -133 -135 -137 -138 -140 -143 -145 -146 -149 -150 -153 -155 -157 -158 -161 -163 -164 -166 -168 -170 -173 -175 -176 -179 -181 -182 -185 -186 0
-62 -64 -65 -67 -70 -71 -74 -76 -78 -81 -83 -84 -86 -89 -90 -93 -94 -97 -98 -101 -103 -105 -107 -108 -111 -112 -114 -116 -118 -121 -123 0
-125 -127 -128 -130 -133 -134 -137 -139 -140 -142 -145 -147 -148 -150 -153 -154 -157 -158 -161 -162 -165 -167 -169 -171 -172 -175 -176 -178 -180 -182 -185 -187 0
-62 -63 -66 -68 -70 -72 -74 -75 -76 -79 -80 -83 -84 -86 -89 -90 -93 -94 -96 -98 -101 -103 -104 -107 -108 -110 -113 -114 -117 -119 -121 -122 0
-125 -126 -129 -131 -133 -135 -137 -138 -140 -143 -144 -147 -148 -150 -153 -154 -157 -158 -160 -162 -165 -167 -168 -171 -172 -174 -177 -178 -181 -183 -185 -186 0
-61 -63 -65 -67 -69 -72 -74 -76 -79 -81 -83 -85 -87 -89 -91 -92 -95 -96 -98 -100 -103 -105 -107 -109 -111 -113 -114 -117 -118 -121 -123 0
-124 -126 -128 -130 -132 -135 -137 -139 -140 -143 -145 -147 -149 -151 -153 -155 -156 -159 -160 -162 -164 -167 -169 -171 -173 -175 -177 -178 -181 -182 -185 -187 0
-62 -63 -65 -67 -69 -71 -74 -75 -76 -79 -81 -82 -85 -87 -89 -90 -93 -94 -97 -98 -100 -102 -104 -106 -109 -111 -113 -115 -116 -119 -121 -122 0
-125 -126 -128 -130 -132 -134 -137 -138 -140 -143 -145 -146 -149 -151 -153 -154 -157 -158 -161 -162 -164 -166 -168 -170 -173 -175 -177 -179 -180 -183 -185 -186 0
-61 -63 -65 -68 -70 -71 -74 -76 -78 -80 -83 -85 -86 -88 -90 -93 -94 -97 -99 -100 -103 -105 -106 -108 -111 -113 -114 -117 -118 -120 -122 0
-124 -126 -128 -131 -133 -134 -137 -139 -140 -142 -144 -147 -149 -150 -152 -154 -157 -158 -161 -163 -164 -167 -169 -170 -172 -175 -177 -178 -181 -182 -184 -186 0
-61 -63 -65 -67 -70 -72 -74 -76 -78 -80 -83 -85 -86 -88 -91 -93 -95 -97 -99 -101 -103 -104 -106 -108 -111 -113 -114 -117 -118 -121 -122 0
-124 -126 -128 -130 -133 -135 -137 -139 -140 -142 -144 -147 -149 -150 -152 -155 -157 -159 -161 -163 -165 -167 -168 -170 -172 -175 -177 -178 -181 -182 -185 -186 0
-62 -63 -66 -68 -69 -72 -73 -76 -78 -80 -83 -84 -86 -89 -91 -92 -94 -96 -99 -101 -102 -105 -107 -109 -111 -113 -114 -117 -119 -120 -122 0
-125 -126 -129 -131 -132 -135 -136 -139 -140 -142 -144 -147 -148 -150 -153 -155 -156 -158 -160 -163 -165 -166 -169 -171 -173 -175 -177 -178 -181 -183 -184 -186 0
-62 -63 -65 -68 -70 -72 -73 -76 -78 -80 -83 -84 -86 -88 -90 -92 -94 -96 -98 -100 -102 -104 -106 -108 -111 -112 -115 -116 -118 -120 -122 0
-125 -126 -128 -131 -133 -135 -136 -139 -140 -142 -144 -147 -148 -150 -152 -154 -156 -158 -160 -162 -164 -166 -168 -170 -172 -175 -176 -179 -180 -182 -184 -186 0
-62 -64 -65 -68 -70 -71 -74 -76 -78 -81 -82 -84 -87 -88 -91 -93 -94 -97 -98 -101 -102 -104 -107 -109 -110 -112 -114 -116 -118 -120 -123 0
-125 -127 -128 -131 -133 -134 -137 -139 -140 -142 -145 -146 -148 -151 -152 -155 -157 -158 -161 -162 -165 -166 -168 -171 -173 -174 -176 -178 -180 -182 -184 -187 0
-61 -64 -66 -68 -70 -72 -73 -76 -79 -80 -82 -84 -86 -88 -90 -93 -94 -96 -98 -101 -102 -104 -107 -109 -110 -112 -114 -117 -118 -121 -122 0
-124 -127 -129 -131 -133 -135 -136 -139 -140 -143 -144 -146 -148 -150 -152 -154 -157 -158 -160 -162 -165 -166 -168 -171 -173 -174 -176 -178 -181 -182 -185 -186 0
-61 -63 -66 -67 -70 -71 -74 -77 -78 -80 -82 -85 -86 -88 -91 -93 -94 -97 -98 -100 -103 -105 -107 -109 -111 -112 -114 -116 -119 -120 -122 0
-124 -126 -129 -130 -133 -134 -137 -139 -141 -142 -144 -146 -149 -150 -152 -155 -157 -158 -161 -162 -164 -167 -169 -171 -173 -175 -176 -178 -180 -183 -184 -186 0
-62 -63 -65 -68 -70 -71 -73 -77 -79 -81 -82 -85 -86 -88 -91 -92 -95 -97 -98 -100 -102 -104 -107 -108 -110 -112 -114 -116 -119 -121 -123 0
-125 -126 -128 -131 -133 -134 -136 -139 -141 -143 -145 -146 -149 -150 -152 -155 -156 -159 -161 -162 -164 -166 -168 -171 -172 -174 -176 -178 -180 -183 -185 -187 0
-62 -63 -65 -67 -69 -71 -73 -75 -76 -79 -81 -82 -84 -86 -89 -91 -93 -94 -97 -98 -100 -102 -104 -106 -109 -111 -112 -114 -117 -118 -120 -123 0
-125 -126 -128 -130 -132 -134 -136 -138 -140 -143 -145 -146 -148 -150 -153 -155 -157 -158 -161 -162 -164 -166 -168 -170 -173 -175 -176 -178 -181 -182 -184 -187 0
-62 -63 -65 -68 -70 -72 -73 -76 -79 -81 -83 -84 -86 -89 -90 -92 -94 -97 -99 -100 -102 -105 -106 -108 -111 -112 -114 -117 -118 -121 -123 0
-125 -126 -128 -131 -133 -135 -136 -139 -140 -143 -145 -147 -148 -150 -153 -154 -156 -158 -161 -163 -164 -166 -169 -170 -172 -175 -176 -178 -181 -182 -185 -187 0
-62 -64 -66 -67 -70 -72 -74 -75 -76 -78 -80 -82 -84 -86 -89 -90 -93 -95 -97 -98 -101 -102 -104 -106 -108 -110 -113 -115 -116 -119 -120 -123 0
-125 -127 -129 -130 -133 -135 -137 -138 -140 -142 -144 -146 -148 -150 -153 -154 -157 -159 -161 -162 -165 -166 -168 -170 -172 -174 -177 -179 -180 -183 -184 -187 0
-61 -63 -66 -68 -69 -72 -73 -77 -78 -81 -82 -84 -86 -88 -90 -92 -95 -96 -98 -101 -103 -104 -106 -109 -111 -112 -114 -116 -119 -121 -123 0
-124 -126 -129 -131 -132 -135 -136 -139 -141 -142 -145 -146 -148 -150 -152 -154 -156 -159 -160 -162 -165 -167 -168 -170 -173 -175 -176 -178 -180 -183 -185 -187 0
-62 -63 -66 -67 -69 -72 -74 -75 -77 -79 -80 -83 -84 -87 -89 -91 -93 -95 -97 -99 -101 -103 -104 -106 -109 -110 -112 -115 -116 -119 -120 -122 0
-125 -126 -129 -130 -132 -135 -137 -138 -141 -143 -144 -147 -148 -151 -153 -155 -157 -159 -161 -163 -165 -167 -168 -170 -173 -174 -176 -179 -180 -183 -184 -186 0
-1 -4 -5 -8 -10 -11 -13 -15 -17 -18 -20 -23 -25 -27 -29 -30 -31 -33 -36 -38 -39 -42 -43 -45 -46 -48 -51 -54 -56 -58 -60 0
-61 -64 -65 -68 -70 -71 -73 -75 -77 -78 -80 -83 -85 -87 -89 -91 -92 -94 -97 -99 -100 -103 -105 -107 -108 -110 -112 -114 -117 -119 -121 -123 0
-124 -127 -128 -131 -133 -134 -136 -138 -141 -142 -144 -147 -149 -151 -153 -155 -156 -158 -161 -163 -164 -167 -169 -171 -172 -174 -176 -178 -181 -183 -185 -187 0
-61 -63 -66 -67 -69 -71 -74 -75 -77 -79 -80 -82 -85 -86 -89 -91 -93 -94 -96 -99 -101 -103 -104 -107 -108 -111 -112 -115 -116 -118 -120 -123 0
-124 -126 -129 -130 -132 -134 -137 -138 -141 -143 -144 -146 -149 -150 -153 -155 -157 -158 -160 -163 -165 -167 -168 -171 -172 -175 -176 -179 -180 -182 -184 -187 0
-62 -63 -65 -67 -70 -71 -73 -75 -76 -79 -80 -83 -84 -87 -89 -90 -92 -95 -96 -98 -101 -103 -104 -107 -108 -111 -112 -115 -117 -119 -120 -123 0
-125 -126 -128 -130 -133 -134 -136 -138 -140 -143 -144 -147 -148 -151 -153 -154 -156 -159 -160 -162 -165 -167 -168 -171 -172 -175 -176 -179 -181 -183 -184 -187 0
-62 -63 -66 -67 -70 -72 -74 -77 -78 -81 -82 -84 -87 -89 -90 -92 -94 -96 -98 -101 -102 -104 -107 -108 -110 -113 -115 -117 -119 -120 -123 0
-125 -126 -129 -130 -133 -135 -137 -139 -141 -142 -145 -146 -148 -151 -153 -154 -156 -158 -160 -162 -165 -166 -168 -171 -172 -174 -177 -179 -181 -183 -184 -187 0
-62 -64 -65 -67 -70 -72 -74 -75 -77 -78 -81 -82 -84 -86 -88 -90 -93 -94 -97 -98 -101 -102 -104 -106 -108 -110 -113 -114 -116 -119 -121 -123 0
-125 -127 -128 -130 -133 -135 -137 -138 -141 -142 -145 -146 -148 -150 -152 -154 -157 -158 -161 -162 -165 -166 -168 -170 -172 -174 -177 -178 -180 -183 -185 -187 0
-2 -3 -6 -8 -10 -12 -14 -15 -16 -19 -21 -23 -24 -27 -29 -30 -31 -34 -35 -38 -40 -42 -43 -44 -46 -49 -50 -51 -53 -56 -58 -59 0
-62 -63 -66 -68 -70 -72 -74 -75 -76 -79 -81 -83 -84 -87 -89 -91 -92 -95 -96 -99 -101 -103 -105 -106 -108 -111 -113 -114 -116 -119 -121 -122 0
-125 -126 -129 -131 -133 -135 -137 -138 -140 -143 -145 -147 -148 -151 -153 -155 -156 -159 -160 -163 -165 -167 -169 -170 -172 -175 -177 -178 -180 -183 -185 -186 0
-61 -63 -65 -68 -69 -72 -73 -75 -77 -79 -81 -83 -85 -86 -89 -90 -93 -94 -97 -99 -101 -102 -104 -106 -108 -111 -113 -114 -116 -118 -121 -123 0
-124 -126 -128 -131 -132 -135 -136 -138 -141 -143 -145 -147 -149 -150 -153 -154 -157 -158 -161 -163 -165 -166 -168 -170 -172 -175 -177 -178 -180 -182 -185 -187 0
-61 -63 -66 -67 -69 -71 -73 -76 -79 -81 -82 -84 -87 -89 -90 -92 -94 -96 -98 -100 -103 -104 -106 -108 -110 -113 -115 -117 -119 -120 -122 0
-124 -126 -129 -130 -132 -134 -136 -139 -140 -143 -145 -146 -148 -151 -153 -154 -156 -158 -160 -162 -164 -167 -168 -170 -172 -174 -177 -179 -181 -183 -184 -186 0
-62 -63 -66 -67 -70 -71 -74 -76 -78 -80 -82 -85 -86 -89 -91 -93 -95 -96 -99 -100 -102 -105 -106 -108 -111 -112 -114 -116 -118 -120 -123 0
-125 -126 -129 -130 -133 -134 -137 -139 -140 -142 -144 -146 -149 -150 -153 -155 -157 -159 -160 -163 -164 -166 -169 -170 -172 -175 -176 -178 -180 -182 -184 -187 0
-62 -64 -65 -68 -69 -71 -73 -75 -77 -78 -80 -82 -85 -87 -89 -90 -93 -94 -97 -98 -100 -102 -104 -107 -109 -110 -113 -115 -117 -119 -121 -122 0
-125 -127 -128 -131 -132 -134 -136 -138 -141 -142 -144 -146 -149 -151 -153 -154 -157 -158 -161 -162 -164 -166 -168 -171 -173 -174 -177 -179 -181 -183 -185 -186 0
-2 -3 -6 -8 -9 -12 -14 -15 -17 -18 -21 -22 -24 -26 -28 -31 -34 -36 -38 -40 -42 -43 -44 -47 -48 -52 -53 -56 -58 -59 0
-62 -63 -66 -68 -69 -72 -74 -75 -77 -78 -81 -82 -84 -86 -88 -90 -92 -95 -97 -99 -101 -103 -105 -106 -109 -110 -112 -115 -116 -119 -121 -122 0
-125 -126 -129 -131 -132 -135 -137 -138 -141 -142 -145 -146 -148 -150 -152 -154 -156 -159 -161 -163 -165 -167 -169 -170 -173 -174 -176 -179 -180 -183 -185 -186 0
-62 -63 -66 -68 -69 -72 -74 -77 -78 -80 -82 -84 -87 -89 -91 -92 -95 -97 -98 -100 -102 -104 -107 -109 -111 -112 -114 -117 -119 -121 -123 0
-125 -126 -129 -131 -132 -135 -137 -139 -141 -142 -144 -146 -148 -151 -153 -155 -156 -159 -161 -162 -164 -166 -168 -171 -173 -175 -176 -178 -181 -183 -185 -187 0
-61 -63 -65 -68 -70 -72 -74 -75 -76 -78 -81 -82 -85 -86 -89 -90 -93 -94 -96 -99 -100 -103 -104 -107 -108 -111 -113 -115 -117 -118 -120 -122 0
-124 -126 -128 -131 -133 -135 -137 -138 -140 -142 -145 -146 -149 -150 -153 -154 -157 -158 -160 -163 -164 -167 -168 -171 -172 -175 -177 -179 -181 -182 -184 -186 0
-62 -63 -66 -68 -70 -72 -74 -77 -78 -81 -82 -85 -87 -88 -91 -92 -94 -97 -99 -101 -103 -105 -107 -108 -111 -112 -114 -116 -119 -121 -123 0
-125 -126 -129 -131 -133 -135 -137 -139 -141 -142 -145 -146 -149 -151 -152 -155 -156 -158 -161 -163 -165 -167 -169 -171 -172 -175 -176 -178 -180 -183 -185 -187 0
-62 -64 -65 -67 -69 -72 -74 -77 -79 -80 -83 -85 -87 -88 -91 -92 -94 -97 -99 -100 -102 -104 -106 -108 -110 -113 -114 -116 -118 -121 -123 0
-125 -127 -128 -130 -132 -135 -137 -139 -141 -143 -144 -147 -149 -151 -152 -155 -156 -158 -161 -163 -164 -166 -168 -170 -172 -174 -177 -178 -180 -182 -185 -187 0
1 -188 0
4 -188 0
5 -188 0
8 -188 0
10 -188 0
11 -188 0
13 -188 0
-188 0
16 -188 0
19 -188 0
20 -188 0
22 -188 0
25 -188 0
27 -188 0
29 -188 0
30 -188 0
32 -188 0
34 -188 0
35 -188 0
38 -188 0
39 -188 0
41 -188 0
43 -188 0
45 -188 0
46 -188 0
48 -188 0
50 -188 0
51 -188 0
54 -188 0
56 -188 0
57 -188 0
59 -188 0
61 -189 0
64 -189 0
65 -189 0
68 -189 0
70 -189 0
71 -189 0
73 -189 0
76 -189 0
79 -189 0
80 -189 0
82 -189 0
85 -189 0
87 -189 0
89 -189 0
91 -189 0
93 -189 0
95 -189 0
96 -189 0
99 -189 0
100 -189 0
102 -189 0
105 -189 0
107 -189 0
108 -189 0
110 -189 0
113 -189 0
114 -189 0
117 -189 0
119 -189 0
120 -189 0
122 -189 0
124 -190 0
127 -190 0
128 -190 0
131 -190 0
133 -190 0
134 -190 0
136 -190 0
139 -190 0
140 -190 0
143 -190 0
144 -190 0
146 -190 0
149 -190 0
151 -190 0
153 -190 0
155 -190 0
157 -190 0
159 -190 0
160 -190 0
163 -190 0
164 -190 0
166 -190 0
169 -190 0
171 -190 0
172 -190 0
174 -190 0
177 -190 0
178 -190 0
181 -190 0
183 -190 0
184 -190 0
186 -190 0
2 -191 0
4 -191 0
6 -191 0
8 -191 0
10 -191 0
12 -191 0
13 -191 0
15 -191 0
17 -191 0
18 -191 0
21 -191 0
23 -191 0
24 -191 0
27 -191 0
29 -191 0
31 -191 0
33 -191 0
35 -191 0
38 -191 0
39 -191 0
41 -191 0
-191 0
45 -191 0
46 -191 0
49 -191 0
50 -191 0
52 -191 0
54 -191 0
56 -191 0
57 -191 0
59 -191 0
62 -192 0
64 -192 0
66 -192 0
68 -192 0
70 -192 0
72 -192 0
73 -192 0
75 -192 0
77 -192 0
78 -192 0
81 -192 0
83 -192 0
84 -192 0
87 -192 0
89 -192 0
90 -192 0
92 -192 0
94 -192 0
96 -192 0
99 -192 0
100 -192 0
102 -192 0
104 -192 0
107 -192 0
108 -192 0
111 -192 0
113 -192 0
115 -192 0
117 -192 0
119 -192 0
120 -192 0
122 -192 0
125 -193 0
127 -193 0
129 -193 0
131 -193 0
133 -193 0
135 -193 0
136 -193 0
138 -193 0
141 -193 0
142 -193 0
145 -193 0
147 -193 0
148 -193 0
151 -193 0
153 -193 0
154 -193 0
156 -193 0
158 -193 0
160 -193 0
163 -193 0
164 -193 0
166 -193 0
168 -193 0
171 -193 0
172 -193 0
175 -193 0
177 -193 0
179 -193 0
181 -193 0
183 -193 0
184 -193 0
186 -193 0
2 -194 0
3 -194 0
6 -194 0
7 -194 0
9 -194 0
12 -194 0
14 -194 0
-194 0
17 -194 0
19 -194 0
20 -194 0
23 -194 0
24 -194 0
26 -194 0
28 -194 0
30 -194 0
31 -194 0
33 -194 0
35 -194 0
37 -194 0
39 -194 0
41 -194 0
43 -194 0
44 -194 0
47 -194 0
48 -194 0
52 -194 0
54 -194 0
56 -194 0
57 -194 0
60 -194 0
62 -195 0
63 -195 0
66 -195 0
67 -195 0
69 -195 0
72 -195 0
74 -195 0
77 -195 0
79 -195 0
80 -195 0
83 -195 0
84 -195 0
86 -195 0
88 -195 0
91 -195 0
92 -195 0
94 -195 0
96 -195 0
98 -195 0
100 -195 0
102 -195 0
105 -195 0
106 -195 0
109 -195 0
110 -195 0
112 -195 0
115 -195 0
117 -195 0
119 -195 0
120 -195 0
123 -195 0
125 -196 0
126 -196 0
129 -196 0
130 -196 0
132 -196 0
135 -196 0
137 -196 0
139 -196 0
141 -196 0
143 -196 0
144 -196 0
147 -196 0
148 -196 0
150 -196 0
152 -196 0
155 -196 0
156 -196 0
158 -196 0
160 -196 0
162 -196 0
164 -196 0
166 -196 0
169 -196 0
170 -196 0
173 -196 0
174 -196 0
176 -196 0
179 -196 0
181 -196 0
183 -196 0
184 -196 0
187 -196 0
1 -197 0
4 -197 0
6 -197 0
7 -197 0
10 -197 0
12 -197 0
13 -197 0
15 -197 0
16 -197 0
18 -197 0
20 -197 0
23 -197 0
24 -197 0
27 -197 0
29 -197 0
30 -197 0
32 -197 0
34 -197 0
35 -197 0
37 -197 0
40 -197 0
42 -197 0
43 -197 0
44 -197 0
46 -197 0
48 -197 0
51 -197 0
54 -197 0
55 -197 0
57 -197 0
60 -197 0
61 -198 0
64 -198 0
66 -198 0
67 -198 0
70 -198 0
72 -198 0
73 -198 0
75 -198 0
76 -198 0
78 -198 0
80 -198 0
83 -198 0
84 -198 0
87 -198 0
89 -198 0
91 -198 0
93 -198 0
95 -198 0
96 -198 0
98 -198 0
101 -198 0
103 -198 0
105 -198 0
106 -198 0
108 -198 0
110 -198 0
112 -198 0
114 -198 0
117 -198 0
118 -198 0
120 -198 0
123 -198 0
124 -199 0
127 -199 0
129 -199 0
130 -199 0
133 -199 0
135 -199 0
136 -199 0
138 -199 0
140 -199 0
142 -199 0
144 -199 0
147 -199 0
148 -199 0
151 -199 0
153 -199 0
155 -199 0
157 -199 0
159 -199 0
160 -199 0
162 -199 0
165 -199 0
167 -199 0
169 -199 0
170 -199 0
172 -199 0
174 -199 0
176 -199 0
178 -199 0
181 -199 0
182 -199 0
184 -199 0
187 -199 0
2 -200 0
4 -200 0
6 -200 0
7 -200 0
10 -200 0
12 -200 0
14 -200 0
-200 0
17 -200 0
19 -200 0
20 -200 0
23 -200 0
24 -200 0
27 -200 0
29 -200 0
31 -200 0
33 -200 0
35 -200 0
38 -200 0
40 -200 0
42 -200 0
43 -200 0
45 -200 0
47 -200 0
49 -200 0
50 -200 0
52 -200 0
54 -200 0
55 -200 0
57 -200 0
59 -200 0
62 -201 0
64 -201 0
66 -201 0
67 -201 0
70 -201 0
72 -201 0
74 -201 0
77 -201 0
79 -201 0
80 -201 0
83 -201 0
84 -201 0
87 -201 0
89 -201 0
90 -201 0
92 -201 0
94 -201 0
96 -201 0
99 -201 0
101 -201 0
103 -201 0
105 -201 0
107 -201 0
109 -201 0
111 -201 0
113 -201 0
115 -201 0
117 -201 0
118 -201 0
120 -201 0
122 -201 0
125 -202 0
127 -202 0
129 -202 0
130 -202 0
133 -202 0
135 -202 0
137 -202 0
139 -202 0
141 -202 0
143 -202 0
144 -202 0
147 -202 0
148 -202 0
151 -202 0
153 -202 0
154 -202 0
156 -202 0
158 -202 0
160 -202 0
163 -202 0
165 -202 0
167 -202 0
169 -202 0
171 -202 0
173 -202 0
175 -202 0
177 -202 0
179 -202 0
181 -202 0
182 -202 0
184 -202 0
186 -202 0
1 -203 0
4 -203 0
5 -203 0
8 -203 0
10 -203 0
12 -203 0
14 -203 0
15 -203 0
16 -203 0
18 -203 0
20 -203 0
23 -203 0
25 -203 0
27 -203 0
28 -203 0
32 -203 0
34 -203 0
36 -203 0
38 -203 0
39 -203 0
41 -203 0
43 -203 0
44 -203 0
47 -203 0
48 -203 0
50 -203 0
52 -203 0
54 -203 0
56 -203 0
57 -203 0
60 -203 0
61 -204 0
64 -204 0
65 -204 0
68 -204 0
70 -204 0
72 -204 0
74 -204 0
75 -204 0
76 -204 0
78 -204 0
80 -204 0
83 -204 0
85 -204 0
87 -204 0
88 -204 0
90 -204 0
93 -204 0
95 -204 0
97 -204 0
99 -204 0
100 -204 0
102 -204 0
105 -204 0
106 -204 0
109 -204 0
110 -204 0
113 -204 0
115 -204 0
117 -204 0
119 -204 0
120 -204 0
123 -204 0
124 -205 0
127 -205 0
128 -205 0
131 -205 0
133 -205 0
135 -205 0
137 -205 0
138 -205 0
140 -205 0
142 -205 0
144 -205 0
147 -205 0
149 -205 0
151 -205 0
152 -205 0
154 -205 0
157 -205 0
159 -205 0
161 -205 0
163 -205 0
164 -205 0
166 -205 0
169 -205 0
170 -205 0
173 -205 0
174 -205 0
177 -205 0
179 -205 0
181 -205 0
183 -205 0
184 -205 0
187 -205 0
1 -206 0
4 -206 0
5 -206 0
8 -206 0
10 -206 0
12 -206 0
13 -206 0
-206 0
17 -206 0
18 -206 0
20 -206 0
23 -206 0
25 -206 0
26 -206 0
29 -206 0
32 -206 0
34 -206 0
35 -206 0
37 -206 0
39 -206 0
42 -206 0
-206 0
45 -206 0
47 -206 0
48 -206 0
51 -206 0
54 -206 0
56 -206 0
57 -206 0
59 -206 0
61 -207 0
64 -207 0
65 -207 0
68 -207 0
70 -207 0
72 -207 0
73 -207 0
77 -207 0
78 -207 0
80 -207 0
83 -207 0
85 -207 0
86 -207 0
89 -207 0
90 -207 0
93 -207 0
95 -207 0
96 -207 0
98 -207 0
100 -207 0
103 -207 0
104 -207 0
107 -207 0
109 -207 0
110 -207 0
112 -207 0
114 -207 0
117 -207 0
119 -207 0
120 -207 0
122 -207 0
124 -208 0
127 -208 0
128 -208 0
131 -208 0
133 -208 0
135 -208 0
136 -208 0
139 -208 0
141 -208 0
142 -208 0
144 -208 0
147 -208 0
149 -208 0
150 -208 0
153 -208 0
154 -208 0
157 -208 0
159 -208 0
160 -208 0
162 -208 0
164 -208 0
167 -208 0
168 -208 0
171 -208 0
173 -208 0
174 -208 0
176 -208 0
178 -208 0
181 -208 0
183 -208 0
184 -208 0
186 -208 0
2 -209 0
4 -209 0
6 -209 0
8 -209 0
10 -209 0
12 -209 0
13 -209 0
15 -209 0
16 -209 0
18 -209 0
20 -209 0
22 -209 0
24 -209 0
26 -209 0
29 -209 0
30 -209 0
31 -209 0
33 -209 0
36 -209 0
38 -209 0
40 -209 0
41 -209 0
43 -209 0
44 -209 0
47 -209 0
48 -209 0
50 -209 0
52 -209 0
54 -209 0
55 -209 0
57 -209 0
60 -209 0
62 -210 0
64 -210 0
66 -210 0
68 -210 0
70 -210 0
72 -210 0
73 -210 0
75 -210 0
76 -210 0
78 -210 0
80 -210 0
82 -210 0
84 -210 0
86 -210 0
89 -210 0
91 -210 0
92 -210 0
94 -210 0
97 -210 0
99 -210 0
101 -210 0
102 -210 0
105 -210 0
106 -210 0
109 -210 0
110 -210 0
113 -210 0
115 -210 0
117 -210 0
118 -210 0
120 -210 0
123 -210 0
125 -211 0
127 -211 0
129 -211 0
131 -211 0
133 -211 0
135 -211 0
136 -211 0
138 -211 0
140 -211 0
142 -211 0
144 -211 0
146 -211 0
148 -211 0
150 -211 0
153 -211 0
155 -211 0
156 -211 0
158 -211 0
161 -211 0
163 -211 0
165 -211 0
166 -211 0
169 -211 0
170 -211 0
173 -211 0
174 -211 0
177 -211 0
179 -211 0
181 -211 0
182 -211 0
184 -211 0
187 -211 0
2 -212 0
4 -212 0
6 -212 0
7 -212 0
10 -212 0
11 -212 0
13 -212 0
15 -212 0
17 -212 0
18 -212 0
20 -212 0
23 -212 0
24 -212 0
26 -212 0
28 -212 0
30 -212 0
31 -212 0
34 -212 0
35 -212 0
38 -212 0
40 -212 0
41 -212 0
-212 0
44 -212 0
46 -212 0
48 -212 0
52 -212 0
54 -212 0
56 -212 0
57 -212 0
60 -212 0
62 -213 0
64 -213 0
66 -213 0
67 -213 0
70 -213 0
71 -213 0
73 -213 0
75 -213 0
77 -213 0
78 -213 0
80 -213 0
83 -213 0
84 -213 0
86 -213 0
88 -213 0
91 -213 0
92 -213 0
95 -213 0
96 -213 0
99 -213 0
101 -213 0
102 -213 0
104 -213 0
106 -213 0
108 -213 0
110 -213 0
112 -213 0
115 -213 0
117 -213 0
119 -213 0
120 -213 0
123 -213 0
125 -214 0
127 -214 0
129 -214 0
130 -214 0
133 -214 0
134 -214 0
136 -214 0
138 -214 0
141 -214 0
142 -214 0
144 -214 0
147 -214 0
148 -214 0
150 -214 0
152 -214 0
155 -214 0
156 -214 0
159 -214 0
160 -214 0
163 -214 0
165 -214 0
166 -214 0
168 -214 0
170 -214 0
172 -214 0
174 -214 0
176 -214 0
179 -214 0
181 -214 0
183 -214 0
184 -214 0
187 -214 0
2 -215 0
4 -215 0
6 -215 0
8 -215 0
10 -215 0
12 -215 0
14 -215 0
15 -215 0
17 -215 0
18 -215 0
20 -215 0
23 -215 0
25 -215 0
27 -215 0
28 -215 0
31 -215 0
34 -215 0
36 -215 0
38 -215 0
39 -215 0
41 -215 0
43 -215 0
45 -215 0
47 -215 0
49 -215 0
50 -215 0
52 -215 0
54 -215 0
56 -215 0
57 -215 0
59 -215 0
62 0
64 0
66 0
68 0
70 0
72 0
74 0
75 0
77 0
78 0
80 0
83 0
85 0
87 0
88 0
90 0
92 0
95 0
97 0
99 0
100 0
102 0
105 0
107 0
109 0
111 0
113 0
115 0
117 0
119 0
120 0
122 0
125 -216 0
127 -216 0
129 -216 0
131 -216 0
133 -216 0
135 -216 0
137 -216 0
138 -216 0
141 -216 0
142 -216 0
144 -216 0
147 -216 0
149 -216 0
151 -216 0
152 -216 0
154 -216 0
156 -216 0
159 -216 0
161 -216 0
163 -216 0
164 -216 0
166 -216 0
169 -216 0
171 -216 0
173 -216 0
175 -216 0
177 -216 0
179 -216 0
181 -216 0
183 -216 0
184 -216 0
186 -216 0
188 189 190 0
191 192 193 0
194 195 196 0
197 198 199 0
200 201 202 0
203 204 205 0
206 207 208 0
209 210 211 0
212 213 214 0
